p cnf 72 70
-1 9 10 12 16 27 28 29 39 71 0 
-2 3 8 13 14 15 17 30 32 33 35 36 37 38 46 47 48 49 50 51 52 53 54 56 60 61 62 63 64 65 71 0 
-3 2 8 13 14 15 17 30 32 33 35 36 37 38 46 47 48 49 50 51 52 53 54 56 60 61 62 63 64 65 71 0 
-4 -5 40 -6 71 0 
-7 43 71 0 
-8 2 3 13 14 15 17 30 32 33 35 36 37 38 46 47 48 49 50 51 52 53 54 56 60 61 62 63 64 65 71 0 
-9 1 10 12 16 27 28 29 39 71 0 
-10 1 9 12 16 27 28 29 39 71 0 
-11 59 71 0 
-12 1 9 10 16 27 28 29 39 71 0 
-13 2 3 8 14 15 17 30 32 33 35 36 37 38 46 47 48 49 50 51 52 53 54 56 60 61 62 63 64 65 71 0 
-14 2 3 8 13 15 17 30 32 33 35 36 37 38 46 47 48 49 50 51 52 53 54 56 60 61 62 63 64 65 71 0 
-15 2 3 8 13 14 17 30 32 33 35 36 37 38 46 47 48 49 50 51 52 53 54 56 60 61 62 63 64 65 71 0 
-16 1 9 10 12 27 28 29 39 71 0 
-17 2 3 8 13 14 15 30 32 33 35 36 37 38 46 47 48 49 50 51 52 53 54 56 60 61 62 63 64 65 71 0 
-18 22 24 25 66 71 0 
-19 23 26 31 34 71 0 
-20 71 0 
-21 71 0 
-22 18 24 25 66 71 0 
-23 19 26 31 34 71 0 
-24 18 22 25 66 71 0 
-25 18 22 24 66 71 0 
-26 19 23 31 34 71 0 
-27 1 9 10 12 16 28 29 39 71 0 
-28 1 9 10 12 16 27 29 39 71 0 
-29 1 9 10 12 16 27 28 39 71 0 
-30 2 3 8 13 14 15 17 32 33 35 36 37 38 46 47 48 49 50 51 52 53 54 56 60 61 62 63 64 65 71 0 
-31 19 23 26 34 71 0 
-32 2 3 8 13 14 15 17 30 33 35 36 37 38 46 47 48 49 50 51 52 53 54 56 60 61 62 63 64 65 71 0 
-33 2 3 8 13 14 15 17 30 32 35 36 37 38 46 47 48 49 50 51 52 53 54 56 60 61 62 63 64 65 71 0 
-34 19 23 26 31 71 0 
-35 2 3 8 13 14 15 17 30 32 33 36 37 38 46 47 48 49 50 51 52 53 54 56 60 61 62 63 64 65 71 0 
-36 2 3 8 13 14 15 17 30 32 33 35 37 38 46 47 48 49 50 51 52 53 54 56 60 61 62 63 64 65 71 0 
-37 2 3 8 13 14 15 17 30 32 33 35 36 38 46 47 48 49 50 51 52 53 54 56 60 61 62 63 64 65 71 0 
-38 2 3 8 13 14 15 17 30 32 33 35 36 37 46 47 48 49 50 51 52 53 54 56 60 61 62 63 64 65 71 0 
-39 1 9 10 12 16 27 28 29 71 0 
-40 5 71 0 
-41 70 71 0 
-42 -43 7 71 0 
-44 71 0 
-45 71 0 
-46 2 3 8 13 14 15 17 30 32 33 35 36 37 38 47 48 49 50 51 52 53 54 56 60 61 62 63 64 65 71 0 
-47 2 3 8 13 14 15 17 30 32 33 35 36 37 38 46 48 49 50 51 52 53 54 56 60 61 62 63 64 65 71 0 
-48 2 3 8 13 14 15 17 30 32 33 35 36 37 38 46 47 49 50 51 52 53 54 56 60 61 62 63 64 65 71 0 
-49 2 3 8 13 14 15 17 30 32 33 35 36 37 38 46 47 48 50 51 52 53 54 56 60 61 62 63 64 65 71 0 
-50 2 3 8 13 14 15 17 30 32 33 35 36 37 38 46 47 48 49 51 52 53 54 56 60 61 62 63 64 65 71 0 
-51 2 3 8 13 14 15 17 30 32 33 35 36 37 38 46 47 48 49 50 52 53 54 56 60 61 62 63 64 65 71 0 
-52 2 3 8 13 14 15 17 30 32 33 35 36 37 38 46 47 48 49 50 51 53 54 56 60 61 62 63 64 65 71 0 
-53 2 3 8 13 14 15 17 30 32 33 35 36 37 38 46 47 48 49 50 51 52 54 56 60 61 62 63 64 65 71 0 
-54 2 3 8 13 14 15 17 30 32 33 35 36 37 38 46 47 48 49 50 51 52 53 56 60 61 62 63 64 65 71 0 
-55 58 71 0 
-56 2 3 8 13 14 15 17 30 32 33 35 36 37 38 46 47 48 49 50 51 52 53 54 60 61 62 63 64 65 71 0 
-57 71 0 
-58 55 71 0 
-59 11 71 0 
-60 2 3 8 13 14 15 17 30 32 33 35 36 37 38 46 47 48 49 50 51 52 53 54 56 61 62 63 64 65 71 0 
-61 2 3 8 13 14 15 17 30 32 33 35 36 37 38 46 47 48 49 50 51 52 53 54 56 60 62 63 64 65 71 0 
-62 2 3 8 13 14 15 17 30 32 33 35 36 37 38 46 47 48 49 50 51 52 53 54 56 60 61 63 64 65 71 0 
-63 2 3 8 13 14 15 17 30 32 33 35 36 37 38 46 47 48 49 50 51 52 53 54 56 60 61 62 64 65 71 0 
-64 2 3 8 13 14 15 17 30 32 33 35 36 37 38 46 47 48 49 50 51 52 53 54 56 60 61 62 63 65 71 0 
-42 71 0 
-65 2 3 8 13 14 15 17 30 32 33 35 36 37 38 46 47 48 49 50 51 52 53 54 56 60 61 62 63 64 71 0 
-66 18 22 24 25 71 0 
-42 -67 -68 71 0 
-31 19 23 26 34 -69 72 0 
-19 23 26 31 34 72 0 
-68 71 0 
-67 72 0 
-67 -7 43 -70 41 72 0 
